NAME : Unnamed.1050.tour
COMMENT : Length = 1050
COMMENT : Found by LKH [Keld Helsgaun] Tue Jan 13 16:45:22 2015
TYPE : TOUR
DIMENSION : 123
TOUR_SECTION
1
4
10
37
51
47
23
17
24
85
55
80
71
94
63
89
65
95
120
106
111
117
79
69
83
73
67
68
90
77
15
18
28
81
49
14
11
57
40
53
62
42
20
96
88
99
84
64
74
12
44
35
50
41
38
54
43
19
60
58
25
26
31
32
70
30
16
13
34
61
27
76
98
82
91
100
108
116
121
112
87
92
97
72
86
93
66
102
113
118
104
107
114
101
109
110
103
122
119
75
105
115
36
52
45
46
39
21
56
59
78
22
29
48
33
9
8
7
6
5
3
2
123
-1
EOF
